benchmark_instances/dzn_benchmark_instances/benchmark_instance_10-4.dzn
% Input: sequence of points
seq_points = [|2,1
              |3,1
              |2,2
              |3,2
              |4,2
              |2,3
              |2,4
              |4,4
              |1,6
              |2,6
              |4,6
              |8,6
              |2,7
              |3,7
              |4,7
              |6,7
              |7,7
              |8,7
              |1,8
              |2,8
              |4,9
              |5,9
              |10,0
              |2,10
              |3,10
              |4,10
              |5,10
              |6,10
              |7,10
              |10,10
              |0,2
              |0,3
              |0,10
              |0,0
             |];

num_points = 34;
