benchmark_instances/lp_benchmark_instances/benchmark_instance_10-4.lp
% Input: sequence of points
point(2,1).
point(3,1).
point(2,2).
point(3,2).
point(4,2).
point(2,3).
point(2,4).
point(4,4).
point(1,6).
point(2,6).
point(4,6).
point(8,6).
point(2,7).
point(3,7).
point(4,7).
point(6,7).
point(7,7).
point(8,7).
point(1,8).
point(2,8).
point(4,9).
point(5,9).
point(10,0).
point(2,10).
point(3,10).
point(4,10).
point(5,10).
point(6,10).
point(7,10).
point(10,10).
point(0,2).
point(0,3).
point(0,10).
point(0,0).
